RT is False
Default write of storage_offers_DA.csv just to have a file (but constraint should be inactive)
Reading model...
...model read.
creating competitive generators file...
...competitive generators recorded.
Loading data...
.. day-ahead data with real-time VRE data read.
Compiling instance...
...instance created.
Creating Offer Mitigation (model will solve as dispatch if TRUE)...
NOTE: storage offers will not be mitigated
...storage offer mitigation file created
Converting model to MPEC...
...converted
NOTE: initial MIP solve with only storage competitive to get feasible solution
Solving...

Welcome to IBM(R) ILOG(R) CPLEX(R) Interactive Optimizer 12.9.0.0
  with Simplex, Mixed Integer & Barrier Optimizers
5725-A06 5725-A29 5724-Y48 5724-Y49 5724-Y54 5724-Y55 5655-Y21
Copyright IBM Corp. 1988, 2019.  All Rights Reserved.

Type 'help' for a list of available commands.
Type 'help' followed by a command name for more
information on commands.

CPLEX> Logfile 'cplex.log' closed.
Logfile 'C:\Users\llavin\Desktop\test826\logs\tmpcz_81jar.cplex.log' open.
CPLEX> New value for parallel optimization mode: -1
CPLEX> New value for emphasis for MIP optimization: 1
CPLEX> New value for mixed integer optimality gap tolerance: 0.01
CPLEX> New value for integrality tolerance: 1e-12
CPLEX> New value for deterministic time limit in ticks: 75000
CPLEX> Problem 'C:\Users\llavin\Desktop\test826\logs\tmppvm4n5bw.pyomo.lp' read.
Read time = 0.23 sec. (13.92 ticks)
CPLEX> Problem name         : C:\Users\llavin\Desktop\test826\logs\tmppvm4n5bw.pyomo.lp
Objective sense      : Maximize
Variables            :   53809  [Nneg: 1,  Box: 22004,  Free: 4464,
                                 Binary: 27340]
Objective nonzeros   :    8980
Linear constraints   :  123253  [Less: 41346,  Greater: 59096,  Equal: 22811]
  Nonzeros           :  293289
  RHS nonzeros       :   67491

Variables            : Min LB: -5000.000        Max UB: 1000000.       
Objective nonzeros   : Min   : 0.4083333        Max   : 826.3667       
Linear constraints   :
  Nonzeros           : Min   : 0.4083333        Max   : 1000000.       
  RHS nonzeros       : Min   : 0.4083333        Max   : 1000000.       
CPLEX> CPXPARAM_Parallel                                -1
CPXPARAM_Emphasis_MIP                            1
CPXPARAM_DetTimeLimit                            75000
CPXPARAM_MIP_Tolerances_MIPGap                   0.01
CPXPARAM_MIP_Tolerances_Integrality              9.9999999999999998e-13
Tried aggregator 4 times.
MIP Presolve eliminated 88671 rows and 18927 columns.
MIP Presolve added 3398 rows and 0 columns.
MIP Presolve modified 24908 coefficients.
Aggregator did 13002 substitutions.
Reduced MIP has 24978 rows, 21324 columns, and 71278 nonzeros.
Reduced MIP has 8420 binaries, 0 generals, 0 SOSs, and 0 indicators.
Presolve time = 0.33 sec. (193.76 ticks)
Probing fixed 381 vars, tightened 4539 bounds.
Probing time = 0.08 sec. (19.28 ticks)
Tried aggregator 2 times.
MIP Presolve eliminated 864 rows and 769 columns.
MIP Presolve modified 3040 coefficients.
Aggregator did 28 substitutions.
Reduced MIP has 24086 rows, 20527 columns, and 68692 nonzeros.
Reduced MIP has 8036 binaries, 0 generals, 0 SOSs, and 0 indicators.
Presolve time = 0.11 sec. (89.98 ticks)
Probing fixed 4 vars, tightened 337 bounds.
Probing time = 0.16 sec. (24.63 ticks)
Clique table members: 43822.
MIP emphasis: integer feasibility.
MIP search method: dynamic search.
Parallel mode: opportunistic, using up to 32 threads.
Root relaxation solution time = 0.39 sec. (616.06 ticks)

        Nodes                                         Cuts/
   Node  Left     Objective  IInf  Best Integer    Best Bound    ItCnt     Gap

      0     0     3457.3656    89                   3457.3656     4982         
*     0+    0                         3167.4048     3457.3656             9.15%
      0     0     3457.3656     3     3167.4048   Flowcuts: 1     5008    9.15%
*     0+    0                         3439.2563     3457.3656             0.53%

Implied bound cuts applied:  2
Flow cuts applied:  6
Mixed integer rounding cuts applied:  1

Root node processing (before b&c):
  Real time             =    2.19 sec. (1710.81 ticks)
Parallel b&c, 32 threads:
  Real time             =    0.00 sec. (0.00 ticks)
  Sync time (average)   =    0.00 sec.
  Wait time (average)   =    0.00 sec.
                          ------------
Total (root+branch&cut) =    2.19 sec. (1710.81 ticks)

Solution pool: 2 solutions saved.

MIP - Integer optimal, tolerance (0.01/1e-06):  Objective =  3.4392562962e+03
Current MIP best bound =  3.4573656403e+03 (gap = 18.1093, 0.53%)
Solution time =    2.19 sec.  Iterations = 5015  Nodes = 0 (1)
Deterministic time = 1710.96 ticks  (782.33 ticks/sec)

CPLEX> Incumbent solution written to file 'C:\Users\llavin\Desktop\test826\logs\tmpfpi05r3z.cplex.sol'.
CPLEX> NOTE: no warmstart specified for MIP iteration, default behavior is true
NOTE: resolving with all competitive generators using storage-only solution to warmstart
Solving...

Welcome to IBM(R) ILOG(R) CPLEX(R) Interactive Optimizer 12.9.0.0
  with Simplex, Mixed Integer & Barrier Optimizers
5725-A06 5725-A29 5724-Y48 5724-Y49 5724-Y54 5724-Y55 5655-Y21
Copyright IBM Corp. 1988, 2019.  All Rights Reserved.

Type 'help' for a list of available commands.
Type 'help' followed by a command name for more
information on commands.

CPLEX> Logfile 'cplex.log' closed.
Logfile 'C:\Users\llavin\Desktop\test826\logs\tmpgrhgeszl.cplex.log' open.
CPLEX> New value for parallel optimization mode: -1
CPLEX> New value for emphasis for MIP optimization: 1
CPLEX> New value for mixed integer optimality gap tolerance: 0.01
CPLEX> New value for integrality tolerance: 1e-12
CPLEX> New value for deterministic time limit in ticks: 75000
CPLEX> Problem 'C:\Users\llavin\Desktop\test826\logs\tmp02olb4e_.pyomo.lp' read.
Read time = 0.22 sec. (13.94 ticks)
CPLEX> MIP start file 'C:\Users\llavin\Desktop\test826\logs\tmpslz67zim.cplex.mst' read.
CPLEX> Problem name         : C:\Users\llavin\Desktop\test826\logs\tmp02olb4e_.pyomo.lp
Objective sense      : Maximize
Variables            :   54529  [Nneg: 1,  Box: 22724,  Free: 4464,
                                 Binary: 27340]
Objective nonzeros   :    9676
Linear constraints   :  123253  [Less: 41346,  Greater: 59096,  Equal: 22811]
  Nonzeros           :  293289
  RHS nonzeros       :   67491

Variables            : Min LB: -5000.000        Max UB: 1000000.       
Objective nonzeros   : Min   : 0.4083333        Max   : 783.8750       
Linear constraints   :
  Nonzeros           : Min   : 0.4083333        Max   : 1000000.       
  RHS nonzeros       : Min   : 0.4083333        Max   : 1000000.       
CPLEX> CPXPARAM_Parallel                                -1
CPXPARAM_Emphasis_MIP                            1
CPXPARAM_DetTimeLimit                            75000
CPXPARAM_MIP_Tolerances_MIPGap                   0.01
CPXPARAM_MIP_Tolerances_Integrality              9.9999999999999998e-13
Warning:  No solution found from 1 MIP starts.
Retaining values of one MIP start for possible repair.
Tried aggregator 4 times.
MIP Presolve eliminated 88671 rows and 19647 columns.
MIP Presolve added 3398 rows and 0 columns.
MIP Presolve modified 24908 coefficients.
Aggregator did 13002 substitutions.
Reduced MIP has 24978 rows, 21324 columns, and 71278 nonzeros.
Reduced MIP has 8420 binaries, 0 generals, 0 SOSs, and 0 indicators.
Presolve time = 0.33 sec. (194.17 ticks)
Probing fixed 381 vars, tightened 4539 bounds.
Probing time = 0.08 sec. (19.28 ticks)
Tried aggregator 2 times.
MIP Presolve eliminated 864 rows and 769 columns.
MIP Presolve modified 3040 coefficients.
Aggregator did 28 substitutions.
Reduced MIP has 24086 rows, 20527 columns, and 68692 nonzeros.
Reduced MIP has 8036 binaries, 0 generals, 0 SOSs, and 0 indicators.
Presolve time = 0.11 sec. (89.98 ticks)
Probing fixed 4 vars, tightened 337 bounds.
Probing time = 0.14 sec. (24.63 ticks)
Clique table members: 43822.
MIP emphasis: integer feasibility.
MIP search method: dynamic search.
Parallel mode: opportunistic, using up to 32 threads.
Root relaxation solution time = 0.45 sec. (671.01 ticks)

        Nodes                                         Cuts/
   Node  Left     Objective  IInf  Best Integer    Best Bound    ItCnt     Gap

      0     0   106445.3280   291                 106445.3280     5972         
      0     0    93051.3865   152                   Cuts: 146     6147         
      0     0    92562.9561   144                    Cuts: 42     6186         
      0     0    92562.9561   145                     Cuts: 4     6192         
Repair heuristic found nothing.
      0    21    infeasible                          Cuts: 21     6705         
Elapsed time = 3.77 sec. (1955.69 ticks, tree = 0.02 MB, solutions = 0)
    562   217    68772.4791    95                  89142.7959     8677         
   1051   716    40019.4458    88                  86265.7467    17288         
   1703   958    infeasible                        86265.7467    21780         
   2419  1660    28119.0286    59                  86265.7467    34851         
   3068  1830     9027.1666    65                  86265.7467    39893         
   3726  2123    61487.9444   117                  78163.8021    48956         
   4393  2403    45597.1762    69                  78163.8021    56275         
   5131  2752   -73455.8905    36                  77616.0589    66677         
   5744  3246   -19401.0671    51                  77613.6286    82946         
   8432  4842    15913.9588    58                  77066.1402   145714         
Elapsed time = 21.09 sec. (5057.45 ticks, tree = 50.33 MB, solutions = 0)
  11262  6631    infeasible                        77066.1402   212951         
  13804  8519 -2819985.4115   118                  75794.6000   280614         
  16107  9929  -237971.8894   114                  68329.6808   350100         
  18403 10397    54267.7003   102                  66541.2727   376272         
  20561 12088    26857.7146    63                  66541.2727   467357         
  22890 13001  -156904.9789    95                  66541.2727   524256         
  25367 14263    infeasible                        66541.2727   599962         
  27786 15464  -172944.0670    51                  66541.2727   682639         
  30204 16157    infeasible                        66541.2727   738891         
* 30665+16170                        14785.9398    66541.2727           350.03%
  31639 16867    14785.9398    23    14785.9398    66541.2727   789578  350.03%
Elapsed time = 68.49 sec. (14608.03 ticks, tree = 181.03 MB, solutions = 2)
  31640  4876        cutoff          14785.9398    64115.7754   844923  333.63%
  33005   223        cutoff          14785.9398    36984.0929   865870  150.13%
  33926    48        cutoff          14785.9398    14962.7056   874161    1.20%

GUB cover cuts applied:  1
Cover cuts applied:  31
Implied bound cuts applied:  14
Flow cuts applied:  188
Mixed integer rounding cuts applied:  23
Gomory fractional cuts applied:  28

Root node processing (before b&c):
  Real time             =    2.80 sec. (1948.39 ticks)
Parallel b&c, 32 threads:
  Real time             =   76.42 sec. (17017.95 ticks)
  Sync time (average)   =    2.00 sec.
  Wait time (average)   =    0.24 sec.
                          ------------
Total (root+branch&cut) =   79.22 sec. (18966.34 ticks)

Solution pool: 2 solutions saved.

MIP - Integer optimal, tolerance (0.01/1e-06):  Objective =  1.4785939811e+04
Current MIP best bound =  1.4927974932e+04 (gap = 142.035, 0.96%)
Solution time =   79.27 sec.  Iterations = 875831  Nodes = 33930 (27)
Deterministic time = 18966.50 ticks  (239.28 ticks/sec)

CPLEX> Incumbent solution written to file 'C:\Users\llavin\Desktop\test826\logs\tmphmzbhmr9.cplex.sol'.
CPLEX> Exporting results... 
